50
    55    97    33    32    21    78    88    17    53    83    44    33    94    80     1    68    27     2    51    26    75    50    74    28     2    88    42     8    13    46    19    17    54    21    56    22    10    74    99     4     9    34    81    62    17    93    28    10    42     9
     2     7     5     5     7    10     8     9     6     7     1     7    10     2     5     1     2     8     3     5     7     7     8     6     3     4    10    10     9     9     7     4     8     5     1     2     2     4     5     1     8     6     7     4     5     4     2     8     2     7
  1400   766  1826  1153   932   821   365  1304  1699   273   256   265  1939   708  1894   252  1643   552  1353  1648   448  1786  1850   490   964   388   251  2240  2327  1720   696  1908  1358  2296  1107  2166  1305   823   313  2154  2150  1671  1906   398   673  2050  1840   980   290  1979
